NAME: burma14
TYPE: TSP
COMMENT: 14-Staedte in Burma (Zaw Win)
DIMENSION: 14
EDGE_WEIGHT_TYPE: GEO
EDGE_WEIGHT_FORMAT: FUNCTION 
DISPLAY_DATA_TYPE: COORD_DISPLAY
NODE_COORD_SECTION
   A  16.47       96.10
   B  16.47       94.44
   C  20.09       92.54
   D  22.39       93.37
   E  25.23       97.24
   F  22.00       96.05
   G  20.47       97.02
   H  17.20       96.29
   I  16.30       97.38
   J  14.05       98.12
   K  16.53       97.38
   L  21.52       95.59
   M  19.41       97.13
   N  20.09       94.55
EOF
